14
5 9
5 6
5 13
5 8
5 1
5 11
5 0
5 3
5 10
9 6
9 4
9 2
9 11
9 10
9 3
9 1
9 12
6 7
6 10
6 3
6 2
6 12
6 4
6 8
4 7
4 8
4 12
4 13
4 0
4 11
4 3
7 12
7 0
7 11
7 3
7 10
7 8
7 1
8 13
8 2
8 0
8 12
8 3
13 2
13 11
13 3
13 1
13 10
13 0
12 2
12 10
12 11
12 1
2 1
2 3
2 11
2 0
0 10
0 11
0 1
10 3
10 1
11 1
